Version identifier: 22.1.1.0 | 2022-11-28 | 9160aff4d
CPXPARAM_ClockType                               1
CPXPARAM_Read_DataCheck                          1
CPXPARAM_Threads                                 1
CPXPARAM_TimeLimit                               7200
CPXPARAM_MIP_Tolerances_AbsMIPGap                0
CPXPARAM_MIP_Tolerances_MIPGap                   0
CPXPARAM_MIP_Tolerances_Integrality              0
Found incumbent of value 0.000000 after 0.00 sec. (0.46 ticks)
Tried aggregator 2 times.
MIP Presolve eliminated 517 rows and 1 columns.
MIP Presolve modified 262 coefficients.
Aggregator did 300 substitutions.
Reduced MIP has 2916 rows, 1499 columns, and 8384 nonzeros.
Reduced MIP has 1499 binaries, 0 generals, 0 SOSs, and 0 indicators.
Presolve time = 0.01 sec. (9.55 ticks)
Probing time = 0.01 sec. (1.69 ticks)
Tried aggregator 1 time.
Detecting symmetries...
MIP Presolve eliminated 201 rows and 2 columns.
Reduced MIP has 2715 rows, 1497 columns, and 7780 nonzeros.
Reduced MIP has 1497 binaries, 0 generals, 0 SOSs, and 0 indicators.
Presolve time = 0.01 sec. (8.48 ticks)
Probing time = 0.01 sec. (1.51 ticks)
Clique table members: 2458.
MIP emphasis: balance optimality and feasibility.
MIP search method: dynamic search.
Parallel mode: none, using 1 thread.
Root relaxation solution time = 0.02 sec. (16.30 ticks)

        Nodes                                         Cuts/
   Node  Left     Objective  IInf  Best Integer    Best Bound    ItCnt     Gap

*     0+    0                            0.0000      300.0000              --- 
      0     0      300.0000   560        0.0000      300.0000      393     --- 
      0     0      288.5000   525        0.0000     Cuts: 697      958     --- 
      0     0      232.0000   562        0.0000     Cuts: 463     1645     --- 
      0     0      200.0000   570        0.0000     Cuts: 271     2215     --- 
*     0+    0                            2.0000      200.0000              --- 
      0     0        cutoff              2.0000      200.0000     2215     --- 
      0     0      200.0000   693        2.0000 ZeroHalf: 188     2412     --- 
      0     0      200.0000   558        2.0000  ZeroHalf: 11     2521     --- 
Detecting symmetries...
      0     0      200.0000   739        2.0000     Cuts: 189     2910     --- 
*     0+    0                            6.0000      200.0000              --- 
*     0+    0                            8.0000      200.0000              --- 
*     0+    0                           14.0000      200.0000              --- 
      0     0        cutoff             14.0000      200.0000     2910     --- 
*     0+    0                           28.0000      200.0000           614.29%
      0     0        cutoff             28.0000      200.0000     2910  614.29%
Detecting symmetries...
      0     2      200.0000   739       28.0000      200.0000     2910  614.29%
Elapsed time = 1.24 sec. (880.23 ticks, tree = 0.01 MB, solutions = 6)
      7     9      200.0000   591       28.0000      200.0000     5608  614.29%
     14    16      200.0000   555       28.0000      200.0000     8061  614.29%
     25    21    infeasible             28.0000      200.0000    10512  614.29%
     34    28      200.0000   666       28.0000      200.0000    13227  614.29%
     44    32      200.0000   593       28.0000      200.0000    15528  614.29%
     52    30    infeasible             28.0000      200.0000    18660  614.29%
     59    33      200.0000   673       28.0000      200.0000    21826  614.29%
     67    37      200.0000   625       28.0000      200.0000    24004  614.29%
     77    43      200.0000   597       28.0000      200.0000    25978  614.29%
    107    57    infeasible             28.0000      200.0000    34919  614.29%
Elapsed time = 5.70 sec. (4224.41 ticks, tree = 0.65 MB, solutions = 6)
*   108    56      integral     0       62.0000      200.0000    34921  222.58%
    135    62      200.0000   656       62.0000      200.0000    42686  222.58%
    171    60      200.0000   649       62.0000      200.0000    52705  222.58%
    217    64      188.0000   524       62.0000      200.0000    62165  222.58%
*   224    64      integral     0      152.0000      200.0000    62877   31.58%
*   230    55      integral     0      194.0000      200.0000    65509    3.09%
    249    60        cutoff            194.0000      200.0000    70209    3.09%
    269    54    infeasible            194.0000      200.0000    78841    3.09%
    286    53      200.0000   705      194.0000      200.0000    87515    3.09%
    311    54      199.8750   851      194.0000      200.0000    98362    3.09%
    353    56        cutoff            194.0000      200.0000   106622    3.09%
*   355     1      integral     0      200.0000      200.0000   107019    0.00%

GUB cover cuts applied:  6
Clique cuts applied:  4
Cover cuts applied:  585
Implied bound cuts applied:  1
Mixed integer rounding cuts applied:  1
Zero-half cuts applied:  130
Gomory fractional cuts applied:  74

Root node processing (before b&c):
  Real time             =    1.23 sec. (878.60 ticks)
Sequential b&c:
  Real time             =   14.96 sec. (11214.28 ticks)
                          ------------
Total (root+branch&cut) =   16.19 sec. (12092.87 ticks)
Solution is feasible.

---------------------
@@@ MIP_optimal
>>> Benchmark flat100-7.cnf k 2 OPT 200 TimeCost 16.470365524291992 TimeSolve 16.27203679084778 TimeRead 0.0033979415893554688 TimeTrans 0.1949307918548584
